param set_len = 24;
param target := 62222151;
param values := [1] 4755445 [2] 5343524 [3] 5306135 [4] 6518217 [5] 4420806 [6] 3621351 [7] 7506087 [8] 8072879 [9] 5818281 [10] 1758449 [11] 1500379 [12] 2349270 [13] 4583817 [14] 1165542 [15] 7493089 [16] 5817624 [17] 7640273 [18] 7514487 [19] 3252092 [20] 8044771 [21] 1009940 [22] 3588160 [23] 4869787 [24] 7905109 ;
